
  12    4
  10   10   10   10

   0   0   0   0   0   3 2 4 6 
   2  10  10  10  10   1 3 
   2  10  10  10  10   1 5 
   7  10  10  10  10   1 5 
   1  10  10  10  10   2 8 7 
   4  10  10  10  10   2 9 7 
  10  10  10  10  10   2 11 10 
   5  10  10  10  10   1 9 
   4  10  10  10  10   1 12
  10  10  10  10  10   1 12
   3  10  10  10  10   1 12
   0   0   0   0   0   0 
